(set-logic QF_S)
(declare-fun var0 () String)
(assert (str.in.re var0 (re.++ (re.union (re.+ (str.to.re "000")) (re.+ (str.to.re "111"))) (re.++ (re.+ (re.union (str.to.re "2") (str.to.re "33"))) (re.++ (re.+ (re.* (str.to.re "4"))) (re.++ (re.union (re.union (str.to.re "555") (str.to.re "66")) (re.union (str.to.re "77") (str.to.re "88"))) (re.++ (re.+ (re.+ (str.to.re "9"))) (re.++ (re.union (re.* (str.to.re "aa")) (re.* (str.to.re "bb"))) (re.++ (re.union (re.* (str.to.re "c")) (re.* (str.to.re "dd"))) (re.++ (re.* (re.* (str.to.re "eee"))) (re.++ (re.union (re.+ (str.to.re "f")) (re.+ (str.to.re "ggg"))) (re.++ (re.union (re.* (str.to.re "hh")) (re.* (str.to.re "ii"))) (re.++ (re.union (re.union (str.to.re "j") (str.to.re "kk")) (re.union (str.to.re "l") (str.to.re "m"))) (re.++ (re.union (re.union (str.to.re "nn") (str.to.re "ooo")) (re.union (str.to.re "ppp") (str.to.re "qqq"))) (re.++ (re.union (re.+ (str.to.re "rrr")) (re.+ (str.to.re "s"))) (re.++ (re.* (re.union (str.to.re "t") (str.to.re "uu"))) (re.++ (re.+ (re.* (str.to.re "v"))) (re.++ (re.+ (re.+ (str.to.re "w"))) (re.* (re.union (str.to.re "xxx") (str.to.re "y")))))))))))))))))))))
(check-sat)